c n orig vars 96
p cnf 407 1294
97 -1 0
97 -2 0
-97 1 2 0
98 -3 0
98 -4 0
-98 3 4 0
99 -5 0
99 -6 0
-99 5 6 0
100 -7 0
100 -8 0
-100 7 8 0
101 -9 0
101 -10 0
-101 9 10 0
102 -11 0
102 -12 0
-102 11 12 0
103 -13 0
103 -14 0
-103 13 14 0
104 -15 0
104 -16 0
-104 15 16 0
105 -17 0
105 -18 0
-105 17 18 0
106 -19 0
106 -20 0
-106 19 20 0
107 -21 0
107 -22 0
-107 21 22 0
108 -23 0
108 -24 0
-108 23 24 0
-109 97 0
-109 98 0
-109 99 0
-109 100 0
-109 101 0
-109 102 0
-109 103 0
-109 104 0
-109 105 0
-109 106 0
-109 107 0
-109 108 0
109 -97 -98 -99 -100 -101 -102 -103 -104 -105 -106 -107 -108 0
-109 0
110 -25 0
110 -34 0
110 -43 0
110 -52 0
110 -61 0
110 -70 0
110 -79 0
110 -88 0
-110 25 34 43 52 61 70 79 88 0
111 -26 0
111 -35 0
111 -44 0
111 -53 0
111 -62 0
111 -71 0
111 -80 0
111 -89 0
-111 26 35 44 53 62 71 80 89 0
112 -27 0
112 -36 0
112 -45 0
112 -54 0
112 -63 0
112 -72 0
112 -81 0
112 -90 0
-112 27 36 45 54 63 72 81 90 0
113 -28 0
113 -37 0
113 -46 0
113 -55 0
113 -64 0
113 -73 0
113 -82 0
113 -91 0
-113 28 37 46 55 64 73 82 91 0
114 -29 0
114 -38 0
114 -47 0
114 -56 0
114 -65 0
114 -74 0
114 -83 0
114 -92 0
-114 29 38 47 56 65 74 83 92 0
115 -30 0
115 -39 0
115 -48 0
115 -57 0
115 -66 0
115 -75 0
115 -84 0
115 -93 0
-115 30 39 48 57 66 75 84 93 0
116 -31 0
116 -40 0
116 -49 0
116 -58 0
116 -67 0
116 -76 0
116 -85 0
116 -94 0
-116 31 40 49 58 67 76 85 94 0
117 -32 0
117 -41 0
117 -50 0
117 -59 0
117 -68 0
117 -77 0
117 -86 0
117 -95 0
-117 32 41 50 59 68 77 86 95 0
118 -33 0
118 -42 0
118 -51 0
118 -60 0
118 -69 0
118 -78 0
118 -87 0
118 -96 0
-118 33 42 51 60 69 78 87 96 0
119 25 0
119 26 0
-119 -25 -26 0
120 25 0
120 27 0
-120 -25 -27 0
121 25 0
121 28 0
-121 -25 -28 0
122 25 0
122 29 0
-122 -25 -29 0
123 25 0
123 30 0
-123 -25 -30 0
124 25 0
124 31 0
-124 -25 -31 0
125 25 0
125 32 0
-125 -25 -32 0
126 25 0
126 33 0
-126 -25 -33 0
127 26 0
127 27 0
-127 -26 -27 0
128 26 0
128 28 0
-128 -26 -28 0
129 26 0
129 29 0
-129 -26 -29 0
130 26 0
130 30 0
-130 -26 -30 0
131 26 0
131 31 0
-131 -26 -31 0
132 26 0
132 32 0
-132 -26 -32 0
133 26 0
133 33 0
-133 -26 -33 0
134 27 0
134 28 0
-134 -27 -28 0
135 27 0
135 29 0
-135 -27 -29 0
136 27 0
136 30 0
-136 -27 -30 0
137 27 0
137 31 0
-137 -27 -31 0
138 27 0
138 32 0
-138 -27 -32 0
139 27 0
139 33 0
-139 -27 -33 0
140 28 0
140 29 0
-140 -28 -29 0
141 28 0
141 30 0
-141 -28 -30 0
142 28 0
142 31 0
-142 -28 -31 0
143 28 0
143 32 0
-143 -28 -32 0
144 28 0
144 33 0
-144 -28 -33 0
145 29 0
145 30 0
-145 -29 -30 0
146 29 0
146 31 0
-146 -29 -31 0
147 29 0
147 32 0
-147 -29 -32 0
148 29 0
148 33 0
-148 -29 -33 0
149 30 0
149 31 0
-149 -30 -31 0
150 30 0
150 32 0
-150 -30 -32 0
151 30 0
151 33 0
-151 -30 -33 0
152 31 0
152 32 0
-152 -31 -32 0
153 31 0
153 33 0
-153 -31 -33 0
154 32 0
154 33 0
-154 -32 -33 0
155 34 0
155 35 0
-155 -34 -35 0
156 34 0
156 36 0
-156 -34 -36 0
157 34 0
157 37 0
-157 -34 -37 0
158 34 0
158 38 0
-158 -34 -38 0
159 34 0
159 39 0
-159 -34 -39 0
160 34 0
160 40 0
-160 -34 -40 0
161 34 0
161 41 0
-161 -34 -41 0
162 34 0
162 42 0
-162 -34 -42 0
163 35 0
163 36 0
-163 -35 -36 0
164 35 0
164 37 0
-164 -35 -37 0
165 35 0
165 38 0
-165 -35 -38 0
166 35 0
166 39 0
-166 -35 -39 0
167 35 0
167 40 0
-167 -35 -40 0
168 35 0
168 41 0
-168 -35 -41 0
169 35 0
169 42 0
-169 -35 -42 0
170 36 0
170 37 0
-170 -36 -37 0
171 36 0
171 38 0
-171 -36 -38 0
172 36 0
172 39 0
-172 -36 -39 0
173 36 0
173 40 0
-173 -36 -40 0
174 36 0
174 41 0
-174 -36 -41 0
175 36 0
175 42 0
-175 -36 -42 0
176 37 0
176 38 0
-176 -37 -38 0
177 37 0
177 39 0
-177 -37 -39 0
178 37 0
178 40 0
-178 -37 -40 0
179 37 0
179 41 0
-179 -37 -41 0
180 37 0
180 42 0
-180 -37 -42 0
181 38 0
181 39 0
-181 -38 -39 0
182 38 0
182 40 0
-182 -38 -40 0
183 38 0
183 41 0
-183 -38 -41 0
184 38 0
184 42 0
-184 -38 -42 0
185 39 0
185 40 0
-185 -39 -40 0
186 39 0
186 41 0
-186 -39 -41 0
187 39 0
187 42 0
-187 -39 -42 0
188 40 0
188 41 0
-188 -40 -41 0
189 40 0
189 42 0
-189 -40 -42 0
190 41 0
190 42 0
-190 -41 -42 0
191 43 0
191 44 0
-191 -43 -44 0
192 43 0
192 45 0
-192 -43 -45 0
193 43 0
193 46 0
-193 -43 -46 0
194 43 0
194 47 0
-194 -43 -47 0
195 43 0
195 48 0
-195 -43 -48 0
196 43 0
196 49 0
-196 -43 -49 0
197 43 0
197 50 0
-197 -43 -50 0
198 43 0
198 51 0
-198 -43 -51 0
199 44 0
199 45 0
-199 -44 -45 0
200 44 0
200 46 0
-200 -44 -46 0
201 44 0
201 47 0
-201 -44 -47 0
202 44 0
202 48 0
-202 -44 -48 0
203 44 0
203 49 0
-203 -44 -49 0
204 44 0
204 50 0
-204 -44 -50 0
205 44 0
205 51 0
-205 -44 -51 0
206 45 0
206 46 0
-206 -45 -46 0
207 45 0
207 47 0
-207 -45 -47 0
208 45 0
208 48 0
-208 -45 -48 0
209 45 0
209 49 0
-209 -45 -49 0
210 45 0
210 50 0
-210 -45 -50 0
211 45 0
211 51 0
-211 -45 -51 0
212 46 0
212 47 0
-212 -46 -47 0
213 46 0
213 48 0
-213 -46 -48 0
214 46 0
214 49 0
-214 -46 -49 0
215 46 0
215 50 0
-215 -46 -50 0
216 46 0
216 51 0
-216 -46 -51 0
217 47 0
217 48 0
-217 -47 -48 0
218 47 0
218 49 0
-218 -47 -49 0
219 47 0
219 50 0
-219 -47 -50 0
220 47 0
220 51 0
-220 -47 -51 0
221 48 0
221 49 0
-221 -48 -49 0
222 48 0
222 50 0
-222 -48 -50 0
223 48 0
223 51 0
-223 -48 -51 0
224 49 0
224 50 0
-224 -49 -50 0
225 49 0
225 51 0
-225 -49 -51 0
226 50 0
226 51 0
-226 -50 -51 0
227 52 0
227 53 0
-227 -52 -53 0
228 52 0
228 54 0
-228 -52 -54 0
229 52 0
229 55 0
-229 -52 -55 0
230 52 0
230 56 0
-230 -52 -56 0
231 52 0
231 57 0
-231 -52 -57 0
232 52 0
232 58 0
-232 -52 -58 0
233 52 0
233 59 0
-233 -52 -59 0
234 52 0
234 60 0
-234 -52 -60 0
235 53 0
235 54 0
-235 -53 -54 0
236 53 0
236 55 0
-236 -53 -55 0
237 53 0
237 56 0
-237 -53 -56 0
238 53 0
238 57 0
-238 -53 -57 0
239 53 0
239 58 0
-239 -53 -58 0
240 53 0
240 59 0
-240 -53 -59 0
241 53 0
241 60 0
-241 -53 -60 0
242 54 0
242 55 0
-242 -54 -55 0
243 54 0
243 56 0
-243 -54 -56 0
244 54 0
244 57 0
-244 -54 -57 0
245 54 0
245 58 0
-245 -54 -58 0
246 54 0
246 59 0
-246 -54 -59 0
247 54 0
247 60 0
-247 -54 -60 0
248 55 0
248 56 0
-248 -55 -56 0
249 55 0
249 57 0
-249 -55 -57 0
250 55 0
250 58 0
-250 -55 -58 0
251 55 0
251 59 0
-251 -55 -59 0
252 55 0
252 60 0
-252 -55 -60 0
253 56 0
253 57 0
-253 -56 -57 0
254 56 0
254 58 0
-254 -56 -58 0
255 56 0
255 59 0
-255 -56 -59 0
256 56 0
256 60 0
-256 -56 -60 0
257 57 0
257 58 0
-257 -57 -58 0
258 57 0
258 59 0
-258 -57 -59 0
259 57 0
259 60 0
-259 -57 -60 0
260 58 0
260 59 0
-260 -58 -59 0
261 58 0
261 60 0
-261 -58 -60 0
262 59 0
262 60 0
-262 -59 -60 0
263 61 0
263 62 0
-263 -61 -62 0
264 61 0
264 63 0
-264 -61 -63 0
265 61 0
265 64 0
-265 -61 -64 0
266 61 0
266 65 0
-266 -61 -65 0
267 61 0
267 66 0
-267 -61 -66 0
268 61 0
268 67 0
-268 -61 -67 0
269 61 0
269 68 0
-269 -61 -68 0
270 61 0
270 69 0
-270 -61 -69 0
271 62 0
271 63 0
-271 -62 -63 0
272 62 0
272 64 0
-272 -62 -64 0
273 62 0
273 65 0
-273 -62 -65 0
274 62 0
274 66 0
-274 -62 -66 0
275 62 0
275 67 0
-275 -62 -67 0
276 62 0
276 68 0
-276 -62 -68 0
277 62 0
277 69 0
-277 -62 -69 0
278 63 0
278 64 0
-278 -63 -64 0
279 63 0
279 65 0
-279 -63 -65 0
280 63 0
280 66 0
-280 -63 -66 0
281 63 0
281 67 0
-281 -63 -67 0
282 63 0
282 68 0
-282 -63 -68 0
283 63 0
283 69 0
-283 -63 -69 0
284 64 0
284 65 0
-284 -64 -65 0
285 64 0
285 66 0
-285 -64 -66 0
286 64 0
286 67 0
-286 -64 -67 0
287 64 0
287 68 0
-287 -64 -68 0
288 64 0
288 69 0
-288 -64 -69 0
289 65 0
289 66 0
-289 -65 -66 0
290 65 0
290 67 0
-290 -65 -67 0
291 65 0
291 68 0
-291 -65 -68 0
292 65 0
292 69 0
-292 -65 -69 0
293 66 0
293 67 0
-293 -66 -67 0
294 66 0
294 68 0
-294 -66 -68 0
295 66 0
295 69 0
-295 -66 -69 0
296 67 0
296 68 0
-296 -67 -68 0
297 67 0
297 69 0
-297 -67 -69 0
298 68 0
298 69 0
-298 -68 -69 0
299 70 0
299 71 0
-299 -70 -71 0
300 70 0
300 72 0
-300 -70 -72 0
301 70 0
301 73 0
-301 -70 -73 0
302 70 0
302 74 0
-302 -70 -74 0
303 70 0
303 75 0
-303 -70 -75 0
304 70 0
304 76 0
-304 -70 -76 0
305 70 0
305 77 0
-305 -70 -77 0
306 70 0
306 78 0
-306 -70 -78 0
307 71 0
307 72 0
-307 -71 -72 0
308 71 0
308 73 0
-308 -71 -73 0
309 71 0
309 74 0
-309 -71 -74 0
310 71 0
310 75 0
-310 -71 -75 0
311 71 0
311 76 0
-311 -71 -76 0
312 71 0
312 77 0
-312 -71 -77 0
313 71 0
313 78 0
-313 -71 -78 0
314 72 0
314 73 0
-314 -72 -73 0
315 72 0
315 74 0
-315 -72 -74 0
316 72 0
316 75 0
-316 -72 -75 0
317 72 0
317 76 0
-317 -72 -76 0
318 72 0
318 77 0
-318 -72 -77 0
319 72 0
319 78 0
-319 -72 -78 0
320 73 0
320 74 0
-320 -73 -74 0
321 73 0
321 75 0
-321 -73 -75 0
322 73 0
322 76 0
-322 -73 -76 0
323 73 0
323 77 0
-323 -73 -77 0
324 73 0
324 78 0
-324 -73 -78 0
325 74 0
325 75 0
-325 -74 -75 0
326 74 0
326 76 0
-326 -74 -76 0
327 74 0
327 77 0
-327 -74 -77 0
328 74 0
328 78 0
-328 -74 -78 0
329 75 0
329 76 0
-329 -75 -76 0
330 75 0
330 77 0
-330 -75 -77 0
331 75 0
331 78 0
-331 -75 -78 0
332 76 0
332 77 0
-332 -76 -77 0
333 76 0
333 78 0
-333 -76 -78 0
334 77 0
334 78 0
-334 -77 -78 0
335 79 0
335 80 0
-335 -79 -80 0
336 79 0
336 81 0
-336 -79 -81 0
337 79 0
337 82 0
-337 -79 -82 0
338 79 0
338 83 0
-338 -79 -83 0
339 79 0
339 84 0
-339 -79 -84 0
340 79 0
340 85 0
-340 -79 -85 0
341 79 0
341 86 0
-341 -79 -86 0
342 79 0
342 87 0
-342 -79 -87 0
343 80 0
343 81 0
-343 -80 -81 0
344 80 0
344 82 0
-344 -80 -82 0
345 80 0
345 83 0
-345 -80 -83 0
346 80 0
346 84 0
-346 -80 -84 0
347 80 0
347 85 0
-347 -80 -85 0
348 80 0
348 86 0
-348 -80 -86 0
349 80 0
349 87 0
-349 -80 -87 0
350 81 0
350 82 0
-350 -81 -82 0
351 81 0
351 83 0
-351 -81 -83 0
352 81 0
352 84 0
-352 -81 -84 0
353 81 0
353 85 0
-353 -81 -85 0
354 81 0
354 86 0
-354 -81 -86 0
355 81 0
355 87 0
-355 -81 -87 0
356 82 0
356 83 0
-356 -82 -83 0
357 82 0
357 84 0
-357 -82 -84 0
358 82 0
358 85 0
-358 -82 -85 0
359 82 0
359 86 0
-359 -82 -86 0
360 82 0
360 87 0
-360 -82 -87 0
361 83 0
361 84 0
-361 -83 -84 0
362 83 0
362 85 0
-362 -83 -85 0
363 83 0
363 86 0
-363 -83 -86 0
364 83 0
364 87 0
-364 -83 -87 0
365 84 0
365 85 0
-365 -84 -85 0
366 84 0
366 86 0
-366 -84 -86 0
367 84 0
367 87 0
-367 -84 -87 0
368 85 0
368 86 0
-368 -85 -86 0
369 85 0
369 87 0
-369 -85 -87 0
370 86 0
370 87 0
-370 -86 -87 0
371 88 0
371 89 0
-371 -88 -89 0
372 88 0
372 90 0
-372 -88 -90 0
373 88 0
373 91 0
-373 -88 -91 0
374 88 0
374 92 0
-374 -88 -92 0
375 88 0
375 93 0
-375 -88 -93 0
376 88 0
376 94 0
-376 -88 -94 0
377 88 0
377 95 0
-377 -88 -95 0
378 88 0
378 96 0
-378 -88 -96 0
379 89 0
379 90 0
-379 -89 -90 0
380 89 0
380 91 0
-380 -89 -91 0
381 89 0
381 92 0
-381 -89 -92 0
382 89 0
382 93 0
-382 -89 -93 0
383 89 0
383 94 0
-383 -89 -94 0
384 89 0
384 95 0
-384 -89 -95 0
385 89 0
385 96 0
-385 -89 -96 0
386 90 0
386 91 0
-386 -90 -91 0
387 90 0
387 92 0
-387 -90 -92 0
388 90 0
388 93 0
-388 -90 -93 0
389 90 0
389 94 0
-389 -90 -94 0
390 90 0
390 95 0
-390 -90 -95 0
391 90 0
391 96 0
-391 -90 -96 0
392 91 0
392 92 0
-392 -91 -92 0
393 91 0
393 93 0
-393 -91 -93 0
394 91 0
394 94 0
-394 -91 -94 0
395 91 0
395 95 0
-395 -91 -95 0
396 91 0
396 96 0
-396 -91 -96 0
397 92 0
397 93 0
-397 -92 -93 0
398 92 0
398 94 0
-398 -92 -94 0
399 92 0
399 95 0
-399 -92 -95 0
400 92 0
400 96 0
-400 -92 -96 0
401 93 0
401 94 0
-401 -93 -94 0
402 93 0
402 95 0
-402 -93 -95 0
403 93 0
403 96 0
-403 -93 -96 0
404 94 0
404 95 0
-404 -94 -95 0
405 94 0
405 96 0
-405 -94 -96 0
406 95 0
406 96 0
-406 -95 -96 0
-407 110 0
-407 111 0
-407 112 0
-407 113 0
-407 114 0
-407 115 0
-407 116 0
-407 117 0
-407 118 0
-407 119 0
-407 120 0
-407 121 0
-407 122 0
-407 123 0
-407 124 0
-407 125 0
-407 126 0
-407 127 0
-407 128 0
-407 129 0
-407 130 0
-407 131 0
-407 132 0
-407 133 0
-407 134 0
-407 135 0
-407 136 0
-407 137 0
-407 138 0
-407 139 0
-407 140 0
-407 141 0
-407 142 0
-407 143 0
-407 144 0
-407 145 0
-407 146 0
-407 147 0
-407 148 0
-407 149 0
-407 150 0
-407 151 0
-407 152 0
-407 153 0
-407 154 0
-407 155 0
-407 156 0
-407 157 0
-407 158 0
-407 159 0
-407 160 0
-407 161 0
-407 162 0
-407 163 0
-407 164 0
-407 165 0
-407 166 0
-407 167 0
-407 168 0
-407 169 0
-407 170 0
-407 171 0
-407 172 0
-407 173 0
-407 174 0
-407 175 0
-407 176 0
-407 177 0
-407 178 0
-407 179 0
-407 180 0
-407 181 0
-407 182 0
-407 183 0
-407 184 0
-407 185 0
-407 186 0
-407 187 0
-407 188 0
-407 189 0
-407 190 0
-407 191 0
-407 192 0
-407 193 0
-407 194 0
-407 195 0
-407 196 0
-407 197 0
-407 198 0
-407 199 0
-407 200 0
-407 201 0
-407 202 0
-407 203 0
-407 204 0
-407 205 0
-407 206 0
-407 207 0
-407 208 0
-407 209 0
-407 210 0
-407 211 0
-407 212 0
-407 213 0
-407 214 0
-407 215 0
-407 216 0
-407 217 0
-407 218 0
-407 219 0
-407 220 0
-407 221 0
-407 222 0
-407 223 0
-407 224 0
-407 225 0
-407 226 0
-407 227 0
-407 228 0
-407 229 0
-407 230 0
-407 231 0
-407 232 0
-407 233 0
-407 234 0
-407 235 0
-407 236 0
-407 237 0
-407 238 0
-407 239 0
-407 240 0
-407 241 0
-407 242 0
-407 243 0
-407 244 0
-407 245 0
-407 246 0
-407 247 0
-407 248 0
-407 249 0
-407 250 0
-407 251 0
-407 252 0
-407 253 0
-407 254 0
-407 255 0
-407 256 0
-407 257 0
-407 258 0
-407 259 0
-407 260 0
-407 261 0
-407 262 0
-407 263 0
-407 264 0
-407 265 0
-407 266 0
-407 267 0
-407 268 0
-407 269 0
-407 270 0
-407 271 0
-407 272 0
-407 273 0
-407 274 0
-407 275 0
-407 276 0
-407 277 0
-407 278 0
-407 279 0
-407 280 0
-407 281 0
-407 282 0
-407 283 0
-407 284 0
-407 285 0
-407 286 0
-407 287 0
-407 288 0
-407 289 0
-407 290 0
-407 291 0
-407 292 0
-407 293 0
-407 294 0
-407 295 0
-407 296 0
-407 297 0
-407 298 0
-407 299 0
-407 300 0
-407 301 0
-407 302 0
-407 303 0
-407 304 0
-407 305 0
-407 306 0
-407 307 0
-407 308 0
-407 309 0
-407 310 0
-407 311 0
-407 312 0
-407 313 0
-407 314 0
-407 315 0
-407 316 0
-407 317 0
-407 318 0
-407 319 0
-407 320 0
-407 321 0
-407 322 0
-407 323 0
-407 324 0
-407 325 0
-407 326 0
-407 327 0
-407 328 0
-407 329 0
-407 330 0
-407 331 0
-407 332 0
-407 333 0
-407 334 0
-407 335 0
-407 336 0
-407 337 0
-407 338 0
-407 339 0
-407 340 0
-407 341 0
-407 342 0
-407 343 0
-407 344 0
-407 345 0
-407 346 0
-407 347 0
-407 348 0
-407 349 0
-407 350 0
-407 351 0
-407 352 0
-407 353 0
-407 354 0
-407 355 0
-407 356 0
-407 357 0
-407 358 0
-407 359 0
-407 360 0
-407 361 0
-407 362 0
-407 363 0
-407 364 0
-407 365 0
-407 366 0
-407 367 0
-407 368 0
-407 369 0
-407 370 0
-407 371 0
-407 372 0
-407 373 0
-407 374 0
-407 375 0
-407 376 0
-407 377 0
-407 378 0
-407 379 0
-407 380 0
-407 381 0
-407 382 0
-407 383 0
-407 384 0
-407 385 0
-407 386 0
-407 387 0
-407 388 0
-407 389 0
-407 390 0
-407 391 0
-407 392 0
-407 393 0
-407 394 0
-407 395 0
-407 396 0
-407 397 0
-407 398 0
-407 399 0
-407 400 0
-407 401 0
-407 402 0
-407 403 0
-407 404 0
-407 405 0
-407 406 0
407 -110 -111 -112 -113 -114 -115 -116 -117 -118 -119 -120 -121 -122 -123 -124 -125 -126 -127 -128 -129 -130 -131 -132 -133 -134 -135 -136 -137 -138 -139 -140 -141 -142 -143 -144 -145 -146 -147 -148 -149 -150 -151 -152 -153 -154 -155 -156 -157 -158 -159 -160 -161 -162 -163 -164 -165 -166 -167 -168 -169 -170 -171 -172 -173 -174 -175 -176 -177 -178 -179 -180 -181 -182 -183 -184 -185 -186 -187 -188 -189 -190 -191 -192 -193 -194 -195 -196 -197 -198 -199 -200 -201 -202 -203 -204 -205 -206 -207 -208 -209 -210 -211 -212 -213 -214 -215 -216 -217 -218 -219 -220 -221 -222 -223 -224 -225 -226 -227 -228 -229 -230 -231 -232 -233 -234 -235 -236 -237 -238 -239 -240 -241 -242 -243 -244 -245 -246 -247 -248 -249 -250 -251 -252 -253 -254 -255 -256 -257 -258 -259 -260 -261 -262 -263 -264 -265 -266 -267 -268 -269 -270 -271 -272 -273 -274 -275 -276 -277 -278 -279 -280 -281 -282 -283 -284 -285 -286 -287 -288 -289 -290 -291 -292 -293 -294 -295 -296 -297 -298 -299 -300 -301 -302 -303 -304 -305 -306 -307 -308 -309 -310 -311 -312 -313 -314 -315 -316 -317 -318 -319 -320 -321 -322 -323 -324 -325 -326 -327 -328 -329 -330 -331 -332 -333 -334 -335 -336 -337 -338 -339 -340 -341 -342 -343 -344 -345 -346 -347 -348 -349 -350 -351 -352 -353 -354 -355 -356 -357 -358 -359 -360 -361 -362 -363 -364 -365 -366 -367 -368 -369 -370 -371 -372 -373 -374 -375 -376 -377 -378 -379 -380 -381 -382 -383 -384 -385 -386 -387 -388 -389 -390 -391 -392 -393 -394 -395 -396 -397 -398 -399 -400 -401 -402 -403 -404 -405 -406 0
-407 0
